; benchmark generated from python API
(set-info :status unknown)
(declare-fun x_epoch () (_ BitVec 32))
(declare-fun y_epoch () (_ BitVec 32))
(declare-fun x_plus_epoch () (_ BitVec 32))
(declare-fun x_plus_month () (_ BitVec 32))
(declare-fun x_plus_year () (_ BitVec 32))
(declare-fun x_plus_day () (_ BitVec 32))
(declare-fun x_plus_1_epoch () (_ BitVec 32))
(assert
 (bvsle (_ bv4294930771 32) x_epoch))
(assert
 (bvsge (_ bv36523 32) x_epoch))
(assert
 (bvsle (_ bv4294930771 32) y_epoch))
(assert
 (bvsge (_ bv36523 32) y_epoch))
(assert
 (bvsge x_epoch (_ bv7244 32)))
(assert
 (bvsle x_epoch (_ bv7276 32)))
(assert
 (bvsle (_ bv4294930771 32) x_plus_epoch))
(assert
 (bvsge (_ bv36523 32) x_plus_epoch))
(assert
 (let (($x2219 (= x_plus_month (_ bv11 32))))
 (let (($x3847 (= x_plus_month (_ bv9 32))))
 (let (($x2981 (= x_plus_month (_ bv6 32))))
 (let (($x1108 (= x_plus_month (_ bv4 32))))
 (let ((?x18516 (ite (or $x1108 $x2981 $x3847 $x2219) (_ bv30 32) (_ bv31 32))))
 (let (($x2623 (and (= (bvsmod x_plus_year (_ bv4 32)) (_ bv0 32)) (and (distinct (bvsmod x_plus_year (_ bv100 32)) (_ bv0 32)) true))))
 (let (($x3072 (or $x2623 (= (bvsmod x_plus_year (_ bv400 32)) (_ bv0 32)))))
 (let (($x1640 (= x_plus_month (_ bv2 32))))
 (let (($x26380 (bvsle (_ bv1 32) x_plus_day)))
 (let (($x2109 (bvsle (_ bv1 32) x_plus_month)))
 (let (($x1248 (bvsle (_ bv1900 32) x_plus_year)))
 (and $x1248 (bvsge (_ bv2100 32) x_plus_year) $x2109 (bvsge (_ bv12 32) x_plus_month) $x26380 (bvsle x_plus_day (ite $x1640 (ite $x3072 (_ bv29 32) (_ bv28 32)) ?x18516)))))))))))))))
(assert
 (let (($x2623 (and (= (bvsmod x_plus_year (_ bv4 32)) (_ bv0 32)) (and (distinct (bvsmod x_plus_year (_ bv100 32)) (_ bv0 32)) true))))
 (let (($x3072 (or $x2623 (= (bvsmod x_plus_year (_ bv400 32)) (_ bv0 32)))))
 (let ((?x40486 (ite (= (_ bv2 32) x_plus_month) (ite $x3072 (_ bv31 32) (_ bv31 32)) (ite (= (_ bv1 32) x_plus_month) (ite $x3072 (_ bv0 32) (_ bv0 32)) (_ bv0 32)))))
 (let ((?x16229 (ite (= (_ bv4 32) x_plus_month) (ite $x3072 (_ bv91 32) (_ bv90 32)) (ite (= (_ bv3 32) x_plus_month) (ite $x3072 (_ bv60 32) (_ bv59 32)) ?x40486))))
 (let ((?x845 (ite (= (_ bv6 32) x_plus_month) (ite $x3072 (_ bv152 32) (_ bv151 32)) (ite (= (_ bv5 32) x_plus_month) (ite $x3072 (_ bv121 32) (_ bv120 32)) ?x16229))))
 (let ((?x1781 (ite (= (_ bv8 32) x_plus_month) (ite $x3072 (_ bv213 32) (_ bv212 32)) (ite (= (_ bv7 32) x_plus_month) (ite $x3072 (_ bv182 32) (_ bv181 32)) ?x845))))
 (let ((?x2152 (ite (= (_ bv10 32) x_plus_month) (ite $x3072 (_ bv274 32) (_ bv273 32)) (ite (= (_ bv9 32) x_plus_month) (ite $x3072 (_ bv244 32) (_ bv243 32)) ?x1781))))
 (let ((?x40713 (ite (= (_ bv12 32) x_plus_month) (ite $x3072 (_ bv335 32) (_ bv334 32)) (ite (= (_ bv11 32) x_plus_month) (ite $x3072 (_ bv305 32) (_ bv304 32)) ?x2152))))
 (let ((?x2842 (bvadd (bvmul (_ bv365 32) (bvsub x_plus_year (_ bv1 32))) (bvsdiv (bvsub x_plus_year (_ bv1 32)) (_ bv4 32)))))
 (let ((?x693 (bvadd (bvsub ?x2842 (bvsdiv (bvsub x_plus_year (_ bv1 32)) (_ bv100 32))) (bvsdiv (bvsub x_plus_year (_ bv1 32)) (_ bv400 32)))))
 (= x_plus_epoch (bvsub (bvadd (bvadd ?x693 ?x40713) (bvsub x_plus_day (_ bv1 32))) (_ bv730179 32))))))))))))))
(assert
 (let ((?x3220 (bvadd x_epoch (_ bv730179 32))))
 (let ((?x3490 (bvsmod ?x3220 (_ bv146097 32))))
 (let ((?x1241 (bvsdiv ?x3490 (_ bv36524 32))))
 (let ((?x4048 (ite (bvsle (_ bv4 32) ?x1241) (_ bv3 32) ?x1241)))
 (let ((?x637 (bvsub ?x3490 (bvmul ?x4048 (_ bv36524 32)))))
 (let ((?x2840 (bvsmod ?x637 (_ bv1461 32))))
 (let ((?x2438 (bvsdiv ?x2840 (_ bv365 32))))
 (let ((?x1528 (ite (bvsle (_ bv4 32) ?x2438) (_ bv3 32) ?x2438)))
 (let ((?x4134 (bvadd (bvadd (bvmul (bvsdiv ?x3220 (_ bv146097 32)) (_ bv400 32)) (bvmul ?x4048 (_ bv100 32))) (bvmul (bvsdiv ?x637 (_ bv1461 32)) (_ bv4 32)))))
 (let ((?x3051 (bvadd (bvadd ?x4134 ?x1528) (_ bv1 32))))
 (let (($x1427 (or (and (= (bvsmod ?x3051 (_ bv4 32)) (_ bv0 32)) (and (distinct (bvsmod ?x3051 (_ bv100 32)) (_ bv0 32)) true)) (= (bvsmod ?x3051 (_ bv400 32)) (_ bv0 32)))))
 (let ((?x4422 (bvsub ?x2840 (bvmul ?x1528 (_ bv365 32)))))
 (let ((?x695 (ite $x1427 (_ bv31 32) (_ bv31 32))))
 (let (($x2913 (bvsge ?x4422 ?x695)))
 (let ((?x70942 (ite $x2913 (bvadd (bvsub ?x4422 ?x695) (_ bv1 32)) (bvadd (bvsub ?x4422 (ite $x1427 (_ bv0 32) (_ bv0 32))) (_ bv1 32)))))
 (let ((?x4361 (ite $x1427 (_ bv60 32) (_ bv59 32))))
 (let (($x3831 (bvsge ?x4422 ?x4361)))
 (let ((?x903 (ite $x1427 (_ bv91 32) (_ bv90 32))))
 (let (($x2882 (bvsge ?x4422 ?x903)))
 (let ((?x3079 (ite $x2882 (bvadd (bvsub ?x4422 ?x903) (_ bv1 32)) (ite $x3831 (bvadd (bvsub ?x4422 ?x4361) (_ bv1 32)) ?x70942))))
 (let ((?x3011 (ite $x1427 (_ bv121 32) (_ bv120 32))))
 (let (($x1819 (bvsge ?x4422 ?x3011)))
 (let ((?x424 (ite $x1427 (_ bv152 32) (_ bv151 32))))
 (let (($x4375 (bvsge ?x4422 ?x424)))
 (let ((?x20268 (ite $x4375 (bvadd (bvsub ?x4422 ?x424) (_ bv1 32)) (ite $x1819 (bvadd (bvsub ?x4422 ?x3011) (_ bv1 32)) ?x3079))))
 (let ((?x1817 (ite $x1427 (_ bv182 32) (_ bv181 32))))
 (let (($x2237 (bvsge ?x4422 ?x1817)))
 (let ((?x4322 (ite $x1427 (_ bv213 32) (_ bv212 32))))
 (let (($x411 (bvsge ?x4422 ?x4322)))
 (let ((?x19334 (ite $x411 (bvadd (bvsub ?x4422 ?x4322) (_ bv1 32)) (ite $x2237 (bvadd (bvsub ?x4422 ?x1817) (_ bv1 32)) ?x20268))))
 (let ((?x1243 (ite $x1427 (_ bv244 32) (_ bv243 32))))
 (let (($x1429 (bvsge ?x4422 ?x1243)))
 (let ((?x3981 (ite $x1427 (_ bv274 32) (_ bv273 32))))
 (let (($x4095 (bvsge ?x4422 ?x3981)))
 (let ((?x19097 (ite $x4095 (bvadd (bvsub ?x4422 ?x3981) (_ bv1 32)) (ite $x1429 (bvadd (bvsub ?x4422 ?x1243) (_ bv1 32)) ?x19334))))
 (let ((?x1715 (ite $x1427 (_ bv305 32) (_ bv304 32))))
 (let (($x892 (bvsge ?x4422 ?x1715)))
 (let ((?x4494 (ite $x1427 (_ bv335 32) (_ bv334 32))))
 (let (($x4126 (bvsge ?x4422 ?x4494)))
 (let ((?x70824 (ite $x4126 (bvadd (bvsub ?x4422 ?x4494) (_ bv1 32)) (ite $x892 (bvadd (bvsub ?x4422 ?x1715) (_ bv1 32)) ?x19097))))
 (let ((?x2543 (bvadd (bvmul (_ bv1 32) (_ bv12 32)) (_ bv0 32))))
 (let ((?x833 (ite $x4375 (_ bv6 32) (ite $x1819 (_ bv5 32) (ite $x2882 (_ bv4 32) (ite $x3831 (_ bv3 32) (ite $x2913 (_ bv2 32) (_ bv1 32))))))))
 (let ((?x49313 (ite $x892 (_ bv11 32) (ite $x4095 (_ bv10 32) (ite $x1429 (_ bv9 32) (ite $x411 (_ bv8 32) (ite $x2237 (_ bv7 32) ?x833)))))))
 (let ((?x3018 (ite $x4126 (_ bv12 32) ?x49313)))
 (let ((?x17529 (bvadd ?x3018 ?x2543)))
 (let ((?x41483 (bvsub (ite (bvuge ?x17529 (_ bv2147483648 32)) (bvsub ?x17529 (_ bv0 32)) ?x17529) (_ bv1 32))))
 (let ((?x69094 (bvsmod ?x41483 (_ bv12 32))))
 (let ((?x40028 (bvadd ?x69094 (_ bv1 32))))
 (let ((?x3033 (ite (or (= ?x40028 (_ bv4 32)) (= ?x40028 (_ bv6 32)) (= ?x40028 (_ bv9 32)) (= ?x40028 (_ bv11 32))) (_ bv30 32) (_ bv31 32))))
 (let ((?x73216 (bvsdiv ?x41483 (_ bv12 32))))
 (let ((?x15296 (ite (and (bvuge ?x41483 (_ bv2147483648 32)) (and (distinct (_ bv0 32) ?x69094) true)) (bvsub ?x73216 (_ bv1 32)) ?x73216)))
 (let ((?x68841 (bvadd (_ bv0 32) ?x15296)))
 (let ((?x46910 (bvadd ?x3051 ?x68841)))
 (let (($x999 (or (and (= (bvsmod ?x46910 (_ bv4 32)) (_ bv0 32)) (and (distinct (bvsmod ?x46910 (_ bv100 32)) (_ bv0 32)) true)) (= (bvsmod ?x46910 (_ bv400 32)) (_ bv0 32)))))
 (let ((?x20367 (ite (= ?x40028 (_ bv2 32)) (ite $x999 (_ bv29 32) (_ bv28 32)) ?x3033)))
 (let (($x1336 (bvsgt (_ bv1 32) ?x70824)))
 (let ((?x40999 (ite $x1336 (_ bv1 32) (ite (bvsgt ?x70824 ?x20367) ?x20367 ?x70824))))
 (let ((?x28433 (ite (bvsgt (_ bv1 32) ?x40999) (_ bv1 32) (ite (bvsgt ?x40999 ?x20367) ?x20367 ?x40999))))
 (let ((?x41394 (ite (= (_ bv2 32) ?x40028) (ite $x999 (_ bv31 32) (_ bv31 32)) (ite (= (_ bv1 32) ?x40028) (ite $x999 (_ bv0 32) (_ bv0 32)) (_ bv0 32)))))
 (let ((?x2711 (ite (= (_ bv4 32) ?x40028) (ite $x999 (_ bv91 32) (_ bv90 32)) (ite (= (_ bv3 32) ?x40028) (ite $x999 (_ bv60 32) (_ bv59 32)) ?x41394))))
 (let ((?x1741 (ite (= (_ bv6 32) ?x40028) (ite $x999 (_ bv152 32) (_ bv151 32)) (ite (= (_ bv5 32) ?x40028) (ite $x999 (_ bv121 32) (_ bv120 32)) ?x2711))))
 (let ((?x1768 (ite (= (_ bv8 32) ?x40028) (ite $x999 (_ bv213 32) (_ bv212 32)) (ite (= (_ bv7 32) ?x40028) (ite $x999 (_ bv182 32) (_ bv181 32)) ?x1741))))
 (let ((?x40733 (ite (= (_ bv10 32) ?x40028) (ite $x999 (_ bv274 32) (_ bv273 32)) (ite (= (_ bv9 32) ?x40028) (ite $x999 (_ bv244 32) (_ bv243 32)) ?x1768))))
 (let ((?x29239 (ite (= (_ bv12 32) ?x40028) (ite $x999 (_ bv335 32) (_ bv334 32)) (ite (= (_ bv11 32) ?x40028) (ite $x999 (_ bv305 32) (_ bv304 32)) ?x40733))))
 (let ((?x1270 (bvadd (bvmul (_ bv365 32) (bvsub ?x46910 (_ bv1 32))) (bvsdiv (bvsub ?x46910 (_ bv1 32)) (_ bv4 32)))))
 (let ((?x46565 (bvadd (bvsub ?x1270 (bvsdiv (bvsub ?x46910 (_ bv1 32)) (_ bv100 32))) (bvsdiv (bvsub ?x46910 (_ bv1 32)) (_ bv400 32)))))
 (let ((?x41172 (bvadd (bvadd (bvsub (bvadd (bvadd ?x46565 ?x29239) (bvsub ?x28433 (_ bv1 32))) (_ bv730179 32)) (_ bv0 32)) (_ bv730179 32))))
 (let ((?x3561 (bvsmod ?x41172 (_ bv146097 32))))
 (let ((?x41243 (bvsdiv ?x3561 (_ bv36524 32))))
 (let ((?x4479 (ite (bvsle (_ bv4 32) ?x41243) (_ bv3 32) ?x41243)))
 (let ((?x41054 (bvsub ?x3561 (bvmul ?x4479 (_ bv36524 32)))))
 (let ((?x40914 (bvsmod ?x41054 (_ bv1461 32))))
 (let ((?x40920 (bvsdiv ?x40914 (_ bv365 32))))
 (let ((?x18087 (ite (bvsle (_ bv4 32) ?x40920) (_ bv3 32) ?x40920)))
 (let ((?x2814 (bvadd (bvadd (bvmul (bvsdiv ?x41172 (_ bv146097 32)) (_ bv400 32)) (bvmul ?x4479 (_ bv100 32))) (bvmul (bvsdiv ?x41054 (_ bv1461 32)) (_ bv4 32)))))
 (let ((?x41101 (bvadd (bvadd ?x2814 ?x18087) (_ bv1 32))))
 (let (($x2020 (= (_ bv0 32) (_ bv0 32))))
 (let ((?x2291 (ite $x2020 ?x46910 ?x41101)))
 (= x_plus_year ?x2291))))))))))))))))))))))))))))))))))))))))))))))))))))))))))))))))))))))))))))))))
(assert
 (let ((?x3220 (bvadd x_epoch (_ bv730179 32))))
 (let ((?x3490 (bvsmod ?x3220 (_ bv146097 32))))
 (let ((?x1241 (bvsdiv ?x3490 (_ bv36524 32))))
 (let ((?x4048 (ite (bvsle (_ bv4 32) ?x1241) (_ bv3 32) ?x1241)))
 (let ((?x637 (bvsub ?x3490 (bvmul ?x4048 (_ bv36524 32)))))
 (let ((?x2840 (bvsmod ?x637 (_ bv1461 32))))
 (let ((?x2438 (bvsdiv ?x2840 (_ bv365 32))))
 (let ((?x1528 (ite (bvsle (_ bv4 32) ?x2438) (_ bv3 32) ?x2438)))
 (let ((?x4134 (bvadd (bvadd (bvmul (bvsdiv ?x3220 (_ bv146097 32)) (_ bv400 32)) (bvmul ?x4048 (_ bv100 32))) (bvmul (bvsdiv ?x637 (_ bv1461 32)) (_ bv4 32)))))
 (let ((?x3051 (bvadd (bvadd ?x4134 ?x1528) (_ bv1 32))))
 (let (($x1427 (or (and (= (bvsmod ?x3051 (_ bv4 32)) (_ bv0 32)) (and (distinct (bvsmod ?x3051 (_ bv100 32)) (_ bv0 32)) true)) (= (bvsmod ?x3051 (_ bv400 32)) (_ bv0 32)))))
 (let ((?x4422 (bvsub ?x2840 (bvmul ?x1528 (_ bv365 32)))))
 (let ((?x695 (ite $x1427 (_ bv31 32) (_ bv31 32))))
 (let (($x2913 (bvsge ?x4422 ?x695)))
 (let ((?x70942 (ite $x2913 (bvadd (bvsub ?x4422 ?x695) (_ bv1 32)) (bvadd (bvsub ?x4422 (ite $x1427 (_ bv0 32) (_ bv0 32))) (_ bv1 32)))))
 (let ((?x4361 (ite $x1427 (_ bv60 32) (_ bv59 32))))
 (let (($x3831 (bvsge ?x4422 ?x4361)))
 (let ((?x903 (ite $x1427 (_ bv91 32) (_ bv90 32))))
 (let (($x2882 (bvsge ?x4422 ?x903)))
 (let ((?x3079 (ite $x2882 (bvadd (bvsub ?x4422 ?x903) (_ bv1 32)) (ite $x3831 (bvadd (bvsub ?x4422 ?x4361) (_ bv1 32)) ?x70942))))
 (let ((?x3011 (ite $x1427 (_ bv121 32) (_ bv120 32))))
 (let (($x1819 (bvsge ?x4422 ?x3011)))
 (let ((?x424 (ite $x1427 (_ bv152 32) (_ bv151 32))))
 (let (($x4375 (bvsge ?x4422 ?x424)))
 (let ((?x20268 (ite $x4375 (bvadd (bvsub ?x4422 ?x424) (_ bv1 32)) (ite $x1819 (bvadd (bvsub ?x4422 ?x3011) (_ bv1 32)) ?x3079))))
 (let ((?x1817 (ite $x1427 (_ bv182 32) (_ bv181 32))))
 (let (($x2237 (bvsge ?x4422 ?x1817)))
 (let ((?x4322 (ite $x1427 (_ bv213 32) (_ bv212 32))))
 (let (($x411 (bvsge ?x4422 ?x4322)))
 (let ((?x19334 (ite $x411 (bvadd (bvsub ?x4422 ?x4322) (_ bv1 32)) (ite $x2237 (bvadd (bvsub ?x4422 ?x1817) (_ bv1 32)) ?x20268))))
 (let ((?x1243 (ite $x1427 (_ bv244 32) (_ bv243 32))))
 (let (($x1429 (bvsge ?x4422 ?x1243)))
 (let ((?x3981 (ite $x1427 (_ bv274 32) (_ bv273 32))))
 (let (($x4095 (bvsge ?x4422 ?x3981)))
 (let ((?x19097 (ite $x4095 (bvadd (bvsub ?x4422 ?x3981) (_ bv1 32)) (ite $x1429 (bvadd (bvsub ?x4422 ?x1243) (_ bv1 32)) ?x19334))))
 (let ((?x1715 (ite $x1427 (_ bv305 32) (_ bv304 32))))
 (let (($x892 (bvsge ?x4422 ?x1715)))
 (let ((?x4494 (ite $x1427 (_ bv335 32) (_ bv334 32))))
 (let (($x4126 (bvsge ?x4422 ?x4494)))
 (let ((?x70824 (ite $x4126 (bvadd (bvsub ?x4422 ?x4494) (_ bv1 32)) (ite $x892 (bvadd (bvsub ?x4422 ?x1715) (_ bv1 32)) ?x19097))))
 (let ((?x2543 (bvadd (bvmul (_ bv1 32) (_ bv12 32)) (_ bv0 32))))
 (let ((?x833 (ite $x4375 (_ bv6 32) (ite $x1819 (_ bv5 32) (ite $x2882 (_ bv4 32) (ite $x3831 (_ bv3 32) (ite $x2913 (_ bv2 32) (_ bv1 32))))))))
 (let ((?x49313 (ite $x892 (_ bv11 32) (ite $x4095 (_ bv10 32) (ite $x1429 (_ bv9 32) (ite $x411 (_ bv8 32) (ite $x2237 (_ bv7 32) ?x833)))))))
 (let ((?x3018 (ite $x4126 (_ bv12 32) ?x49313)))
 (let ((?x17529 (bvadd ?x3018 ?x2543)))
 (let ((?x41483 (bvsub (ite (bvuge ?x17529 (_ bv2147483648 32)) (bvsub ?x17529 (_ bv0 32)) ?x17529) (_ bv1 32))))
 (let ((?x69094 (bvsmod ?x41483 (_ bv12 32))))
 (let ((?x40028 (bvadd ?x69094 (_ bv1 32))))
 (let ((?x3033 (ite (or (= ?x40028 (_ bv4 32)) (= ?x40028 (_ bv6 32)) (= ?x40028 (_ bv9 32)) (= ?x40028 (_ bv11 32))) (_ bv30 32) (_ bv31 32))))
 (let ((?x73216 (bvsdiv ?x41483 (_ bv12 32))))
 (let ((?x15296 (ite (and (bvuge ?x41483 (_ bv2147483648 32)) (and (distinct (_ bv0 32) ?x69094) true)) (bvsub ?x73216 (_ bv1 32)) ?x73216)))
 (let ((?x68841 (bvadd (_ bv0 32) ?x15296)))
 (let ((?x46910 (bvadd ?x3051 ?x68841)))
 (let (($x999 (or (and (= (bvsmod ?x46910 (_ bv4 32)) (_ bv0 32)) (and (distinct (bvsmod ?x46910 (_ bv100 32)) (_ bv0 32)) true)) (= (bvsmod ?x46910 (_ bv400 32)) (_ bv0 32)))))
 (let ((?x20367 (ite (= ?x40028 (_ bv2 32)) (ite $x999 (_ bv29 32) (_ bv28 32)) ?x3033)))
 (let (($x1336 (bvsgt (_ bv1 32) ?x70824)))
 (let ((?x40999 (ite $x1336 (_ bv1 32) (ite (bvsgt ?x70824 ?x20367) ?x20367 ?x70824))))
 (let ((?x28433 (ite (bvsgt (_ bv1 32) ?x40999) (_ bv1 32) (ite (bvsgt ?x40999 ?x20367) ?x20367 ?x40999))))
 (let ((?x41394 (ite (= (_ bv2 32) ?x40028) (ite $x999 (_ bv31 32) (_ bv31 32)) (ite (= (_ bv1 32) ?x40028) (ite $x999 (_ bv0 32) (_ bv0 32)) (_ bv0 32)))))
 (let ((?x2711 (ite (= (_ bv4 32) ?x40028) (ite $x999 (_ bv91 32) (_ bv90 32)) (ite (= (_ bv3 32) ?x40028) (ite $x999 (_ bv60 32) (_ bv59 32)) ?x41394))))
 (let ((?x1741 (ite (= (_ bv6 32) ?x40028) (ite $x999 (_ bv152 32) (_ bv151 32)) (ite (= (_ bv5 32) ?x40028) (ite $x999 (_ bv121 32) (_ bv120 32)) ?x2711))))
 (let ((?x1768 (ite (= (_ bv8 32) ?x40028) (ite $x999 (_ bv213 32) (_ bv212 32)) (ite (= (_ bv7 32) ?x40028) (ite $x999 (_ bv182 32) (_ bv181 32)) ?x1741))))
 (let ((?x40733 (ite (= (_ bv10 32) ?x40028) (ite $x999 (_ bv274 32) (_ bv273 32)) (ite (= (_ bv9 32) ?x40028) (ite $x999 (_ bv244 32) (_ bv243 32)) ?x1768))))
 (let ((?x29239 (ite (= (_ bv12 32) ?x40028) (ite $x999 (_ bv335 32) (_ bv334 32)) (ite (= (_ bv11 32) ?x40028) (ite $x999 (_ bv305 32) (_ bv304 32)) ?x40733))))
 (let ((?x1270 (bvadd (bvmul (_ bv365 32) (bvsub ?x46910 (_ bv1 32))) (bvsdiv (bvsub ?x46910 (_ bv1 32)) (_ bv4 32)))))
 (let ((?x46565 (bvadd (bvsub ?x1270 (bvsdiv (bvsub ?x46910 (_ bv1 32)) (_ bv100 32))) (bvsdiv (bvsub ?x46910 (_ bv1 32)) (_ bv400 32)))))
 (let ((?x41172 (bvadd (bvadd (bvsub (bvadd (bvadd ?x46565 ?x29239) (bvsub ?x28433 (_ bv1 32))) (_ bv730179 32)) (_ bv0 32)) (_ bv730179 32))))
 (let ((?x3561 (bvsmod ?x41172 (_ bv146097 32))))
 (let ((?x41243 (bvsdiv ?x3561 (_ bv36524 32))))
 (let ((?x4479 (ite (bvsle (_ bv4 32) ?x41243) (_ bv3 32) ?x41243)))
 (let ((?x41054 (bvsub ?x3561 (bvmul ?x4479 (_ bv36524 32)))))
 (let ((?x40914 (bvsmod ?x41054 (_ bv1461 32))))
 (let ((?x40920 (bvsdiv ?x40914 (_ bv365 32))))
 (let ((?x18087 (ite (bvsle (_ bv4 32) ?x40920) (_ bv3 32) ?x40920)))
 (let ((?x2814 (bvadd (bvadd (bvmul (bvsdiv ?x41172 (_ bv146097 32)) (_ bv400 32)) (bvmul ?x4479 (_ bv100 32))) (bvmul (bvsdiv ?x41054 (_ bv1461 32)) (_ bv4 32)))))
 (let ((?x41101 (bvadd (bvadd ?x2814 ?x18087) (_ bv1 32))))
 (let (($x3697 (or (and (= (bvsmod ?x41101 (_ bv4 32)) (_ bv0 32)) (and (distinct (bvsmod ?x41101 (_ bv100 32)) (_ bv0 32)) true)) (= (bvsmod ?x41101 (_ bv400 32)) (_ bv0 32)))))
 (let ((?x1811 (ite $x3697 (_ bv31 32) (_ bv31 32))))
 (let ((?x41090 (bvsub ?x40914 (bvmul ?x18087 (_ bv365 32)))))
 (let (($x37725 (bvsge ?x41090 ?x1811)))
 (let ((?x21254 (ite $x3697 (_ bv60 32) (_ bv59 32))))
 (let (($x1981 (bvsge ?x41090 ?x21254)))
 (let ((?x56499 (ite $x3697 (_ bv91 32) (_ bv90 32))))
 (let (($x40850 (bvsge ?x41090 ?x56499)))
 (let ((?x3254 (ite $x3697 (_ bv121 32) (_ bv120 32))))
 (let (($x41055 (bvsge ?x41090 ?x3254)))
 (let ((?x69148 (ite $x3697 (_ bv152 32) (_ bv151 32))))
 (let (($x37403 (bvsge ?x41090 ?x69148)))
 (let ((?x37971 (ite $x37403 (_ bv6 32) (ite $x41055 (_ bv5 32) (ite $x40850 (_ bv4 32) (ite $x1981 (_ bv3 32) (ite $x37725 (_ bv2 32) (_ bv1 32))))))))
 (let ((?x2655 (ite $x3697 (_ bv182 32) (_ bv181 32))))
 (let (($x40612 (bvsge ?x41090 ?x2655)))
 (let ((?x3523 (ite $x3697 (_ bv213 32) (_ bv212 32))))
 (let (($x1730 (bvsge ?x41090 ?x3523)))
 (let ((?x41126 (ite $x3697 (_ bv244 32) (_ bv243 32))))
 (let (($x41378 (bvsge ?x41090 ?x41126)))
 (let ((?x18985 (ite $x3697 (_ bv274 32) (_ bv273 32))))
 (let (($x29482 (bvsge ?x41090 ?x18985)))
 (let ((?x4447 (ite $x3697 (_ bv305 32) (_ bv304 32))))
 (let (($x69109 (bvsge ?x41090 ?x4447)))
 (let ((?x40963 (ite $x69109 (_ bv11 32) (ite $x29482 (_ bv10 32) (ite $x41378 (_ bv9 32) (ite $x1730 (_ bv8 32) (ite $x40612 (_ bv7 32) ?x37971)))))))
 (let ((?x16720 (ite $x3697 (_ bv335 32) (_ bv334 32))))
 (let (($x40738 (bvsge ?x41090 ?x16720)))
 (let (($x2020 (= (_ bv0 32) (_ bv0 32))))
 (let ((?x38861 (ite $x2020 ?x40028 (ite $x40738 (_ bv12 32) ?x40963))))
 (= x_plus_month ?x38861))))))))))))))))))))))))))))))))))))))))))))))))))))))))))))))))))))))))))))))))))))))))))))))))))))))))))
(assert
 (let ((?x3220 (bvadd x_epoch (_ bv730179 32))))
 (let ((?x3490 (bvsmod ?x3220 (_ bv146097 32))))
 (let ((?x1241 (bvsdiv ?x3490 (_ bv36524 32))))
 (let ((?x4048 (ite (bvsle (_ bv4 32) ?x1241) (_ bv3 32) ?x1241)))
 (let ((?x637 (bvsub ?x3490 (bvmul ?x4048 (_ bv36524 32)))))
 (let ((?x2840 (bvsmod ?x637 (_ bv1461 32))))
 (let ((?x2438 (bvsdiv ?x2840 (_ bv365 32))))
 (let ((?x1528 (ite (bvsle (_ bv4 32) ?x2438) (_ bv3 32) ?x2438)))
 (let ((?x4134 (bvadd (bvadd (bvmul (bvsdiv ?x3220 (_ bv146097 32)) (_ bv400 32)) (bvmul ?x4048 (_ bv100 32))) (bvmul (bvsdiv ?x637 (_ bv1461 32)) (_ bv4 32)))))
 (let ((?x3051 (bvadd (bvadd ?x4134 ?x1528) (_ bv1 32))))
 (let (($x1427 (or (and (= (bvsmod ?x3051 (_ bv4 32)) (_ bv0 32)) (and (distinct (bvsmod ?x3051 (_ bv100 32)) (_ bv0 32)) true)) (= (bvsmod ?x3051 (_ bv400 32)) (_ bv0 32)))))
 (let ((?x4422 (bvsub ?x2840 (bvmul ?x1528 (_ bv365 32)))))
 (let ((?x695 (ite $x1427 (_ bv31 32) (_ bv31 32))))
 (let (($x2913 (bvsge ?x4422 ?x695)))
 (let ((?x70942 (ite $x2913 (bvadd (bvsub ?x4422 ?x695) (_ bv1 32)) (bvadd (bvsub ?x4422 (ite $x1427 (_ bv0 32) (_ bv0 32))) (_ bv1 32)))))
 (let ((?x4361 (ite $x1427 (_ bv60 32) (_ bv59 32))))
 (let (($x3831 (bvsge ?x4422 ?x4361)))
 (let ((?x903 (ite $x1427 (_ bv91 32) (_ bv90 32))))
 (let (($x2882 (bvsge ?x4422 ?x903)))
 (let ((?x3079 (ite $x2882 (bvadd (bvsub ?x4422 ?x903) (_ bv1 32)) (ite $x3831 (bvadd (bvsub ?x4422 ?x4361) (_ bv1 32)) ?x70942))))
 (let ((?x3011 (ite $x1427 (_ bv121 32) (_ bv120 32))))
 (let (($x1819 (bvsge ?x4422 ?x3011)))
 (let ((?x424 (ite $x1427 (_ bv152 32) (_ bv151 32))))
 (let (($x4375 (bvsge ?x4422 ?x424)))
 (let ((?x20268 (ite $x4375 (bvadd (bvsub ?x4422 ?x424) (_ bv1 32)) (ite $x1819 (bvadd (bvsub ?x4422 ?x3011) (_ bv1 32)) ?x3079))))
 (let ((?x1817 (ite $x1427 (_ bv182 32) (_ bv181 32))))
 (let (($x2237 (bvsge ?x4422 ?x1817)))
 (let ((?x4322 (ite $x1427 (_ bv213 32) (_ bv212 32))))
 (let (($x411 (bvsge ?x4422 ?x4322)))
 (let ((?x19334 (ite $x411 (bvadd (bvsub ?x4422 ?x4322) (_ bv1 32)) (ite $x2237 (bvadd (bvsub ?x4422 ?x1817) (_ bv1 32)) ?x20268))))
 (let ((?x1243 (ite $x1427 (_ bv244 32) (_ bv243 32))))
 (let (($x1429 (bvsge ?x4422 ?x1243)))
 (let ((?x3981 (ite $x1427 (_ bv274 32) (_ bv273 32))))
 (let (($x4095 (bvsge ?x4422 ?x3981)))
 (let ((?x19097 (ite $x4095 (bvadd (bvsub ?x4422 ?x3981) (_ bv1 32)) (ite $x1429 (bvadd (bvsub ?x4422 ?x1243) (_ bv1 32)) ?x19334))))
 (let ((?x1715 (ite $x1427 (_ bv305 32) (_ bv304 32))))
 (let (($x892 (bvsge ?x4422 ?x1715)))
 (let ((?x4494 (ite $x1427 (_ bv335 32) (_ bv334 32))))
 (let (($x4126 (bvsge ?x4422 ?x4494)))
 (let ((?x70824 (ite $x4126 (bvadd (bvsub ?x4422 ?x4494) (_ bv1 32)) (ite $x892 (bvadd (bvsub ?x4422 ?x1715) (_ bv1 32)) ?x19097))))
 (let ((?x2543 (bvadd (bvmul (_ bv1 32) (_ bv12 32)) (_ bv0 32))))
 (let ((?x833 (ite $x4375 (_ bv6 32) (ite $x1819 (_ bv5 32) (ite $x2882 (_ bv4 32) (ite $x3831 (_ bv3 32) (ite $x2913 (_ bv2 32) (_ bv1 32))))))))
 (let ((?x49313 (ite $x892 (_ bv11 32) (ite $x4095 (_ bv10 32) (ite $x1429 (_ bv9 32) (ite $x411 (_ bv8 32) (ite $x2237 (_ bv7 32) ?x833)))))))
 (let ((?x3018 (ite $x4126 (_ bv12 32) ?x49313)))
 (let ((?x17529 (bvadd ?x3018 ?x2543)))
 (let ((?x41483 (bvsub (ite (bvuge ?x17529 (_ bv2147483648 32)) (bvsub ?x17529 (_ bv0 32)) ?x17529) (_ bv1 32))))
 (let ((?x69094 (bvsmod ?x41483 (_ bv12 32))))
 (let ((?x40028 (bvadd ?x69094 (_ bv1 32))))
 (let ((?x3033 (ite (or (= ?x40028 (_ bv4 32)) (= ?x40028 (_ bv6 32)) (= ?x40028 (_ bv9 32)) (= ?x40028 (_ bv11 32))) (_ bv30 32) (_ bv31 32))))
 (let ((?x73216 (bvsdiv ?x41483 (_ bv12 32))))
 (let ((?x15296 (ite (and (bvuge ?x41483 (_ bv2147483648 32)) (and (distinct (_ bv0 32) ?x69094) true)) (bvsub ?x73216 (_ bv1 32)) ?x73216)))
 (let ((?x68841 (bvadd (_ bv0 32) ?x15296)))
 (let ((?x46910 (bvadd ?x3051 ?x68841)))
 (let (($x999 (or (and (= (bvsmod ?x46910 (_ bv4 32)) (_ bv0 32)) (and (distinct (bvsmod ?x46910 (_ bv100 32)) (_ bv0 32)) true)) (= (bvsmod ?x46910 (_ bv400 32)) (_ bv0 32)))))
 (let ((?x20367 (ite (= ?x40028 (_ bv2 32)) (ite $x999 (_ bv29 32) (_ bv28 32)) ?x3033)))
 (let (($x1336 (bvsgt (_ bv1 32) ?x70824)))
 (let ((?x40999 (ite $x1336 (_ bv1 32) (ite (bvsgt ?x70824 ?x20367) ?x20367 ?x70824))))
 (let ((?x28433 (ite (bvsgt (_ bv1 32) ?x40999) (_ bv1 32) (ite (bvsgt ?x40999 ?x20367) ?x20367 ?x40999))))
 (let ((?x41394 (ite (= (_ bv2 32) ?x40028) (ite $x999 (_ bv31 32) (_ bv31 32)) (ite (= (_ bv1 32) ?x40028) (ite $x999 (_ bv0 32) (_ bv0 32)) (_ bv0 32)))))
 (let ((?x2711 (ite (= (_ bv4 32) ?x40028) (ite $x999 (_ bv91 32) (_ bv90 32)) (ite (= (_ bv3 32) ?x40028) (ite $x999 (_ bv60 32) (_ bv59 32)) ?x41394))))
 (let ((?x1741 (ite (= (_ bv6 32) ?x40028) (ite $x999 (_ bv152 32) (_ bv151 32)) (ite (= (_ bv5 32) ?x40028) (ite $x999 (_ bv121 32) (_ bv120 32)) ?x2711))))
 (let ((?x1768 (ite (= (_ bv8 32) ?x40028) (ite $x999 (_ bv213 32) (_ bv212 32)) (ite (= (_ bv7 32) ?x40028) (ite $x999 (_ bv182 32) (_ bv181 32)) ?x1741))))
 (let ((?x40733 (ite (= (_ bv10 32) ?x40028) (ite $x999 (_ bv274 32) (_ bv273 32)) (ite (= (_ bv9 32) ?x40028) (ite $x999 (_ bv244 32) (_ bv243 32)) ?x1768))))
 (let ((?x29239 (ite (= (_ bv12 32) ?x40028) (ite $x999 (_ bv335 32) (_ bv334 32)) (ite (= (_ bv11 32) ?x40028) (ite $x999 (_ bv305 32) (_ bv304 32)) ?x40733))))
 (let ((?x1270 (bvadd (bvmul (_ bv365 32) (bvsub ?x46910 (_ bv1 32))) (bvsdiv (bvsub ?x46910 (_ bv1 32)) (_ bv4 32)))))
 (let ((?x46565 (bvadd (bvsub ?x1270 (bvsdiv (bvsub ?x46910 (_ bv1 32)) (_ bv100 32))) (bvsdiv (bvsub ?x46910 (_ bv1 32)) (_ bv400 32)))))
 (let ((?x41172 (bvadd (bvadd (bvsub (bvadd (bvadd ?x46565 ?x29239) (bvsub ?x28433 (_ bv1 32))) (_ bv730179 32)) (_ bv0 32)) (_ bv730179 32))))
 (let ((?x3561 (bvsmod ?x41172 (_ bv146097 32))))
 (let ((?x41243 (bvsdiv ?x3561 (_ bv36524 32))))
 (let ((?x4479 (ite (bvsle (_ bv4 32) ?x41243) (_ bv3 32) ?x41243)))
 (let ((?x41054 (bvsub ?x3561 (bvmul ?x4479 (_ bv36524 32)))))
 (let ((?x40914 (bvsmod ?x41054 (_ bv1461 32))))
 (let ((?x40920 (bvsdiv ?x40914 (_ bv365 32))))
 (let ((?x18087 (ite (bvsle (_ bv4 32) ?x40920) (_ bv3 32) ?x40920)))
 (let ((?x2814 (bvadd (bvadd (bvmul (bvsdiv ?x41172 (_ bv146097 32)) (_ bv400 32)) (bvmul ?x4479 (_ bv100 32))) (bvmul (bvsdiv ?x41054 (_ bv1461 32)) (_ bv4 32)))))
 (let ((?x41101 (bvadd (bvadd ?x2814 ?x18087) (_ bv1 32))))
 (let (($x3697 (or (and (= (bvsmod ?x41101 (_ bv4 32)) (_ bv0 32)) (and (distinct (bvsmod ?x41101 (_ bv100 32)) (_ bv0 32)) true)) (= (bvsmod ?x41101 (_ bv400 32)) (_ bv0 32)))))
 (let ((?x41090 (bvsub ?x40914 (bvmul ?x18087 (_ bv365 32)))))
 (let ((?x1811 (ite $x3697 (_ bv31 32) (_ bv31 32))))
 (let (($x37725 (bvsge ?x41090 ?x1811)))
 (let ((?x40756 (ite $x37725 (bvadd (bvsub ?x41090 ?x1811) (_ bv1 32)) (bvadd (bvsub ?x41090 (ite $x3697 (_ bv0 32) (_ bv0 32))) (_ bv1 32)))))
 (let ((?x21254 (ite $x3697 (_ bv60 32) (_ bv59 32))))
 (let (($x1981 (bvsge ?x41090 ?x21254)))
 (let ((?x56499 (ite $x3697 (_ bv91 32) (_ bv90 32))))
 (let (($x40850 (bvsge ?x41090 ?x56499)))
 (let ((?x30581 (ite $x40850 (bvadd (bvsub ?x41090 ?x56499) (_ bv1 32)) (ite $x1981 (bvadd (bvsub ?x41090 ?x21254) (_ bv1 32)) ?x40756))))
 (let ((?x3254 (ite $x3697 (_ bv121 32) (_ bv120 32))))
 (let (($x41055 (bvsge ?x41090 ?x3254)))
 (let ((?x69148 (ite $x3697 (_ bv152 32) (_ bv151 32))))
 (let (($x37403 (bvsge ?x41090 ?x69148)))
 (let ((?x50346 (ite $x37403 (bvadd (bvsub ?x41090 ?x69148) (_ bv1 32)) (ite $x41055 (bvadd (bvsub ?x41090 ?x3254) (_ bv1 32)) ?x30581))))
 (let ((?x2655 (ite $x3697 (_ bv182 32) (_ bv181 32))))
 (let (($x40612 (bvsge ?x41090 ?x2655)))
 (let ((?x3523 (ite $x3697 (_ bv213 32) (_ bv212 32))))
 (let (($x1730 (bvsge ?x41090 ?x3523)))
 (let ((?x1942 (ite $x1730 (bvadd (bvsub ?x41090 ?x3523) (_ bv1 32)) (ite $x40612 (bvadd (bvsub ?x41090 ?x2655) (_ bv1 32)) ?x50346))))
 (let ((?x41126 (ite $x3697 (_ bv244 32) (_ bv243 32))))
 (let (($x41378 (bvsge ?x41090 ?x41126)))
 (let ((?x18985 (ite $x3697 (_ bv274 32) (_ bv273 32))))
 (let (($x29482 (bvsge ?x41090 ?x18985)))
 (let ((?x40257 (ite $x29482 (bvadd (bvsub ?x41090 ?x18985) (_ bv1 32)) (ite $x41378 (bvadd (bvsub ?x41090 ?x41126) (_ bv1 32)) ?x1942))))
 (let ((?x4447 (ite $x3697 (_ bv305 32) (_ bv304 32))))
 (let (($x69109 (bvsge ?x41090 ?x4447)))
 (let ((?x16720 (ite $x3697 (_ bv335 32) (_ bv334 32))))
 (let (($x40738 (bvsge ?x41090 ?x16720)))
 (let ((?x15406 (ite $x40738 (bvadd (bvsub ?x41090 ?x16720) (_ bv1 32)) (ite $x69109 (bvadd (bvsub ?x41090 ?x4447) (_ bv1 32)) ?x40257))))
 (let (($x2020 (= (_ bv0 32) (_ bv0 32))))
 (let ((?x46349 (ite $x2020 ?x28433 ?x15406)))
 (= x_plus_day ?x46349))))))))))))))))))))))))))))))))))))))))))))))))))))))))))))))))))))))))))))))))))))))))))))))))))))))))))))))
(assert
 (= y_epoch x_plus_epoch))
(assert
 (bvsle (_ bv4294930771 32) x_plus_1_epoch))
(assert
 (bvsge (_ bv36523 32) x_plus_1_epoch))
(assert
 (= x_plus_1_epoch (bvadd x_epoch (_ bv365 32))))
(assert
 (not (= y_epoch x_plus_1_epoch)))
(check-sat)
